p cnf 49 95                 
-5 9 0
-6 9 0
5 6 -9 0
9 -18 0
-5 14 0
-7 14 0
5 7 -14 0
14 -18 0
-9 -14 18 0
18 22 0
-1 22 0
-18 1 -22 0
22 -26 0
9 -19 0
-6 15 0
-8 15 0
6 8 -15 0
15 -19 0
-9 -15 19 0
19 23 0
-2 23 0
-19 2 -23 0
23 -26 0
-7 10 0
-8 10 0
7 8 -10 0
10 -20 0
14 -20 0
-10 -14 20 0
20 24 0
-3 24 0
-20 3 -24 0
24 -26 0
10 -21 0
15 -21 0
-10 -15 21 0
21 25 0
-4 25 0
-21 4 -25 0
25 -26 0
-22 -23 -24 -25 26 0
5 27 0
-1 27 0
-5 1 -27 0
27 -31 0
6 28 0
-2 28 0
-6 2 -28 0
28 -31 0
7 29 0
-3 29 0
-7 3 -29 0
29 -31 0
8 30 0
-4 30 0
-8 4 -30 0
30 -31 0
-27 -28 -29 -30 31 0
-26 -31 32 0
26 31 32 0
-31 31 32 0
-32 -33 0
-10 -9 -11 0
11 -13 0
9 10 -12 0
12 -13 0
13 -33 0
12 -17 0
-15 -14 -16 0
16 -17 0
17 -33 0
-1 4 -34 0
34 -48 0
-1 -4 35 0
1 4 35 0
-4 4 35 0
-2 3 -36 0
-35 36 -37 0
37 -48 0
-2 -3 38 0
2 3 38 0
-3 3 38 0
-35 -38 39 0
-5 8 -40 0
-39 40 -41 0
41 -48 0
-5 -8 42 0
5 8 42 0
-8 8 42 0
-39 -42 43 0
-6 7 -44 0
-43 44 -45 0
45 -48 0
33 0
48 0
